G   39   39    1    0.010     # Parameters to Generate KPOINTS (Don't Edit This Line)
     147
Reciprocal lattice
    0.000000000000    0.000000000000    0.000000000000       1
    0.025641025641    0.000000000000    0.000000000000       6
    0.051282051282    0.000000000000    0.000000000000       6
    0.076923076923    0.000000000000    0.000000000000       6
    0.102564102564    0.000000000000    0.000000000000       6
    0.128205128205    0.000000000000    0.000000000000       6
    0.153846153846    0.000000000000    0.000000000000       6
    0.179487179487    0.000000000000    0.000000000000       6
    0.205128205128    0.000000000000    0.000000000000       6
    0.230769230769    0.000000000000    0.000000000000       6
    0.256410256410    0.000000000000    0.000000000000       6
    0.282051282051    0.000000000000    0.000000000000       6
    0.307692307692    0.000000000000    0.000000000000       6
    0.333333333333    0.000000000000    0.000000000000       6
    0.358974358974    0.000000000000    0.000000000000       6
    0.384615384615    0.000000000000    0.000000000000       6
    0.410256410256    0.000000000000    0.000000000000       6
    0.435897435897    0.000000000000    0.000000000000       6
    0.461538461538    0.000000000000    0.000000000000       6
    0.487179487179    0.000000000000    0.000000000000       6
    0.025641025641    0.025641025641    0.000000000000       6
    0.051282051282    0.025641025641    0.000000000000      12
    0.076923076923    0.025641025641    0.000000000000      12
    0.102564102564    0.025641025641    0.000000000000      12
    0.128205128205    0.025641025641    0.000000000000      12
    0.153846153846    0.025641025641    0.000000000000      12
    0.179487179487    0.025641025641    0.000000000000      12
    0.205128205128    0.025641025641    0.000000000000      12
    0.230769230769    0.025641025641    0.000000000000      12
    0.256410256410    0.025641025641    0.000000000000      12
    0.282051282051    0.025641025641    0.000000000000      12
    0.307692307692    0.025641025641    0.000000000000      12
    0.333333333333    0.025641025641    0.000000000000      12
    0.358974358974    0.025641025641    0.000000000000      12
    0.384615384615    0.025641025641    0.000000000000      12
    0.410256410256    0.025641025641    0.000000000000      12
    0.435897435897    0.025641025641    0.000000000000      12
    0.461538461538    0.025641025641    0.000000000000      12
    0.487179487179    0.025641025641    0.000000000000       6
    0.051282051282    0.051282051282    0.000000000000       6
    0.076923076923    0.051282051282    0.000000000000      12
    0.102564102564    0.051282051282    0.000000000000      12
    0.128205128205    0.051282051282    0.000000000000      12
    0.153846153846    0.051282051282    0.000000000000      12
    0.179487179487    0.051282051282    0.000000000000      12
    0.205128205128    0.051282051282    0.000000000000      12
    0.230769230769    0.051282051282    0.000000000000      12
    0.256410256410    0.051282051282    0.000000000000      12
    0.282051282051    0.051282051282    0.000000000000      12
    0.307692307692    0.051282051282    0.000000000000      12
    0.333333333333    0.051282051282    0.000000000000      12
    0.358974358974    0.051282051282    0.000000000000      12
    0.384615384615    0.051282051282    0.000000000000      12
    0.410256410256    0.051282051282    0.000000000000      12
    0.435897435897    0.051282051282    0.000000000000      12
    0.461538461538    0.051282051282    0.000000000000      12
    0.076923076923    0.076923076923    0.000000000000       6
    0.102564102564    0.076923076923    0.000000000000      12
    0.128205128205    0.076923076923    0.000000000000      12
    0.153846153846    0.076923076923    0.000000000000      12
    0.179487179487    0.076923076923    0.000000000000      12
    0.205128205128    0.076923076923    0.000000000000      12
    0.230769230769    0.076923076923    0.000000000000      12
    0.256410256410    0.076923076923    0.000000000000      12
    0.282051282051    0.076923076923    0.000000000000      12
    0.307692307692    0.076923076923    0.000000000000      12
    0.333333333333    0.076923076923    0.000000000000      12
    0.358974358974    0.076923076923    0.000000000000      12
    0.384615384615    0.076923076923    0.000000000000      12
    0.410256410256    0.076923076923    0.000000000000      12
    0.435897435897    0.076923076923    0.000000000000      12
    0.461538461538    0.076923076923    0.000000000000       6
    0.102564102564    0.102564102564    0.000000000000       6
    0.128205128205    0.102564102564    0.000000000000      12
    0.153846153846    0.102564102564    0.000000000000      12
    0.179487179487    0.102564102564    0.000000000000      12
    0.205128205128    0.102564102564    0.000000000000      12
    0.230769230769    0.102564102564    0.000000000000      12
    0.256410256410    0.102564102564    0.000000000000      12
    0.282051282051    0.102564102564    0.000000000000      12
    0.307692307692    0.102564102564    0.000000000000      12
    0.333333333333    0.102564102564    0.000000000000      12
    0.358974358974    0.102564102564    0.000000000000      12
    0.384615384615    0.102564102564    0.000000000000      12
    0.410256410256    0.102564102564    0.000000000000      12
    0.435897435897    0.102564102564    0.000000000000      12
    0.128205128205    0.128205128205    0.000000000000       6
    0.153846153846    0.128205128205    0.000000000000      12
    0.179487179487    0.128205128205    0.000000000000      12
    0.205128205128    0.128205128205    0.000000000000      12
    0.230769230769    0.128205128205    0.000000000000      12
    0.256410256410    0.128205128205    0.000000000000      12
    0.282051282051    0.128205128205    0.000000000000      12
    0.307692307692    0.128205128205    0.000000000000      12
    0.333333333333    0.128205128205    0.000000000000      12
    0.358974358974    0.128205128205    0.000000000000      12
    0.384615384615    0.128205128205    0.000000000000      12
    0.410256410256    0.128205128205    0.000000000000      12
    0.435897435897    0.128205128205    0.000000000000       6
    0.153846153846    0.153846153846    0.000000000000       6
    0.179487179487    0.153846153846    0.000000000000      12
    0.205128205128    0.153846153846    0.000000000000      12
    0.230769230769    0.153846153846    0.000000000000      12
    0.256410256410    0.153846153846    0.000000000000      12
    0.282051282051    0.153846153846    0.000000000000      12
    0.307692307692    0.153846153846    0.000000000000      12
    0.333333333333    0.153846153846    0.000000000000      12
    0.358974358974    0.153846153846    0.000000000000      12
    0.384615384615    0.153846153846    0.000000000000      12
    0.410256410256    0.153846153846    0.000000000000      12
    0.179487179487    0.179487179487    0.000000000000       6
    0.205128205128    0.179487179487    0.000000000000      12
    0.230769230769    0.179487179487    0.000000000000      12
    0.256410256410    0.179487179487    0.000000000000      12
    0.282051282051    0.179487179487    0.000000000000      12
    0.307692307692    0.179487179487    0.000000000000      12
    0.333333333333    0.179487179487    0.000000000000      12
    0.358974358974    0.179487179487    0.000000000000      12
    0.384615384615    0.179487179487    0.000000000000      12
    0.410256410256    0.179487179487    0.000000000000       6
    0.205128205128    0.205128205128    0.000000000000       6
    0.230769230769    0.205128205128    0.000000000000      12
    0.256410256410    0.205128205128    0.000000000000      12
    0.282051282051    0.205128205128    0.000000000000      12
    0.307692307692    0.205128205128    0.000000000000      12
    0.333333333333    0.205128205128    0.000000000000      12
    0.358974358974    0.205128205128    0.000000000000      12
    0.384615384615    0.205128205128    0.000000000000      12
    0.230769230769    0.230769230769    0.000000000000       6
    0.256410256410    0.230769230769    0.000000000000      12
    0.282051282051    0.230769230769    0.000000000000      12
    0.307692307692    0.230769230769    0.000000000000      12
    0.333333333333    0.230769230769    0.000000000000      12
    0.358974358974    0.230769230769    0.000000000000      12
    0.384615384615    0.230769230769    0.000000000000       6
    0.256410256410    0.256410256410    0.000000000000       6
    0.282051282051    0.256410256410    0.000000000000      12
    0.307692307692    0.256410256410    0.000000000000      12
    0.333333333333    0.256410256410    0.000000000000      12
    0.358974358974    0.256410256410    0.000000000000      12
    0.282051282051    0.282051282051    0.000000000000       6
    0.307692307692    0.282051282051    0.000000000000      12
    0.333333333333    0.282051282051    0.000000000000      12
    0.358974358974    0.282051282051    0.000000000000       6
    0.307692307692    0.307692307692    0.000000000000       6
    0.333333333333    0.307692307692    0.000000000000      12
    0.333333333333    0.333333333333    0.000000000000       2
